s td 41 20 60
b 1 26 31
b 2 28 42 49
b 3 1 35 38
b 4 2 36 49
b 5 40 47 59
b 6 6 52 54
b 7 46 52 56
b 8 3 4 8 9 12 16 20 24 25 27 29 30 32 38 39 45 52 55 57 59
b 9 3 8 9 12 16 20 24 25 27 29 30 32 38 39 45 52 55 57 59 60
b 10 9 12 16 20 24 25 27 29 30 32 38 39 44 45 52 55 57 59 60
b 11 16 18 20 24 25 27 29 30 32 38 39 44 45 52 55 57 59 60
b 12 16 18 19 24 25 27 29 30 32 38 39 44 52 55 57 59 60
b 13 16 18 19 24 25 27 29 38 39 44 53 55 57 59 60
b 14 18 19 24 25 27 29 35 38 39 53 57 59 60
b 15 5 19 24 27 35 38 39 57 60
b 16 5 19 23 24 38 39 57
b 17 16 29 38 43 53
b 18 6 18 19 24 32 52 57 59 60
b 19 12 30 34 44 45 55
b 20 3 4 8 9 12 16 20 22 24 25 27 29 30 32 38 39 45 52 55 59
b 21 3 4 8 9 12 16 20 22 24 25 27 28 29 30 32 38 45 52 55 59
b 22 3 4 8 9 12 16 20 22 24 25 26 27 28 29 30 32 38 45 52 59
b 23 3 4 8 9 12 16 17 20 22 24 25 26 28 29 30 32 38 45 52 59
b 24 3 4 8 9 12 16 17 20 24 26 28 29 30 32 38 45 49 52 59
b 25 4 7 16 20 26 49
b 26 3 8 10 12 16 17 24 30 32 49 59
b 27 10 12 15 17 24 30 32 59
b 28 8 10 12 16 30 32 49 58 59
b 29 4 9 12 16 17 20 29 36 38 45 49 52
b 30 20 29 36 38 48
b 31 4 12 16 17 29 36 45 50
b 32 3 16 17 26 33
b 33 16 17 20 24 47 52 59
b 34 8 12 14 20 22 24 25 26 27 28 29 30 32 45 59
b 35 8 13 14 22 26 27 28 29 32 45 59
b 36 11 13 14 27 28 29 32 45
b 37 11 13 14 27 32 37
b 38 12 14 20 21 24 25 28 29 30
b 39 12 14 20 21 28 30 51
b 40 4 8 12 38 39 41 57 59
b 41 3 9 46 52 57
1 22
2 24
3 14
4 29
5 33
6 18
7 41
8 9
8 20
8 40
8 41
9 10
10 11
10 19
11 12
12 13
12 18
13 14
13 17
14 15
15 16
20 21
21 22
22 23
22 34
23 24
23 32
23 33
24 25
24 26
24 29
26 27
26 28
29 30
29 31
34 35
34 38
35 36
36 37
38 39
